630 1224
2 1 4
96 1 -4
295 1 4
311 1 -4
95 2 -4
283 2 4
310 2 -4
50 3 4
315 3 -4
470 3 4
502 3 -4
5 4 -4
415 4 4
473 4 4
539 4 -4
20 5 4
382 5 -4
412 5 4
7 6 4
112 6 -4
279 6 -4
389 6 4
71 7 -4
131 7 -4
586 7 4
247 8 -4
315 8 -4
507 8 4
536 8 4
10 9 4
120 9 -4
272 9 -4
364 9 4
85 10 -4
119 10 -4
321 10 4
62 11 -4
302 11 4
366 11 4
391 11 -4
13 12 4
78 12 -4
156 12 4
396 12 -4
294 13 -4
518 13 -4
553 13 4
75 14 -4
291 14 4
342 14 4
421 14 -4
16 15 4
145 15 4
306 15 -4
350 15 -4
102 16 -4
516 16 4
555 16 -4
18 17 4
126 17 4
261 17 -4
457 17 -4
92 18 4
248 18 -4
253 18 -4
20 19 4
247 19 -4
417 19 4
541 19 -4
580 20 -4
583 20 -4
88 21 -4
280 21 4
323 21 4
449 21 -4
292 22 4
395 22 4
481 22 -4
596 22 -4
24 23 4
135 23 4
327 23 -4
372 23 -4
89 24 -4
485 24 4
598 24 -4
26 25 4
27 25 -4
115 25 4
147 25 -4
43 26 -4
250 26 -4
523 26 4
114 27 4
250 27 -4
601 27 4
29 28 4
69 28 -4
433 28 4
460 28 -4
115 29 -4
116 29 4
251 29 -4
31 30 -4
441 30 4
626 30 4
627 30 -4
383 31 4
578 31 -4
622 31 4
293 32 -4
303 32 4
371 32 4
425 32 -4
123 33 4
273 33 4
349 33 -4
399 33 -4
328 34 4
330 34 -4
558 34 -4
559 34 4
36 35 -4
106 35 4
158 35 -4
559 35 4
124 36 4
125 36 4
253 36 -4
38 37 4
81 37 -4
431 37 -4
463 37 4
67 38 -4
106 38 -4
107 38 4
160 39 4
185 39 4
505 39 -4
623 39 -4
41 40 -4
132 40 -4
203 40 4
477 40 4
168 41 4
169 41 4
340 41 -4
304 42 -4
324 42 4
347 42 4
453 42 -4
44 43 -4
351 43 4
602 43 4
135 44 -4
205 44 4
209 44 4
46 45 -4
93 45 4
524 45 -4
602 45 4
137 46 4
255 46 -4
430 46 4
48 47 4
354 47 -4
405 47 -4
494 47 4
79 48 -4
93 48 -4
566 48 4
139 49 4
435 49 -4
463 49 -4
494 49 4
174 50 4
380 50 -4
473 50 -4
196 51 4
448 51 4
510 51 -4
589 51 -4
196 52 -4
244 52 4
302 52 4
512 52 -4
325 53 -4
344 53 4
346 53 4
484 53 -4
346 54 4
396 54 -4
554 54 4
596 54 -4
103 55 -4
248 55 4
399 55 -4
456 55 4
331 56 -4
375 56 -4
528 56 4
607 56 4
129 57 4
433 57 -4
464 57 -4
528 57 4
59 58 4
61 58 4
259 58 -4
448 58 -4
279 59 -4
61 60 4
187 60 4
323 60 -4
545 60 -4
179 61 -4
419 61 -4
63 62 4
325 62 -4
368 62 4
187 63 -4
240 63 4
480 63 -4
345 64 -4
368 64 4
370 64 4
515 64 -4
171 65 -4
347 65 -4
370 65 4
517 65 4
90 66 -4
249 66 4
372 66 -4
489 66 4
105 67 4
281 67 4
562 67 -4
69 68 -4
117 68 4
496 68 -4
567 68 4
183 69 4
407 69 4
71 70 4
72 70 -4
74 70 4
477 70 -4
585 72 4
74 73 4
178 73 4
342 73 -4
587 73 -4
188 74 -4
388 74 -4
345 75 -4
392 75 4
451 75 4
369 76 -4
392 76 4
394 76 4
552 76 -4
144 77 4
273 77 -4
371 77 -4
394 77 4
427 78 4
487 78 4
558 78 -4
92 79 4
523 79 -4
607 79 4
81 80 -4
108 80 4
530 80 -4
611 80 4
193 81 4
376 81 4
83 82 4
381 82 -4
580 82 4
625 82 -4
218 83 4
358 83 -4
501 83 -4
85 84 4
86 84 -4
87 84 4
510 84 -4
168 86 4
197 87 -4
363 87 -4
364 87 4
369 88 -4
423 88 4
593 88 4
134 89 4
395 89 -4
424 89 4
91 90 4
455 90 4
519 90 -4
134 91 -4
235 91 4
557 91 -4
490 92 -4
491 92 -4
125 93 4
460 93 -4
95 94 4
354 94 -4
569 94 4
570 94 -4
116 95 4
566 95 -4
109 96 4
437 96 -4
569 96 4
214 97 4
335 97 -4
469 97 -4
536 97 4
99 98 4
100 98 -4
101 98 4
545 98 -4
584 99 -4
177 100 4
204 101 -4
340 101 -4
389 101 4
122 102 4
425 102 -4
452 102 4
104 103 4
488 103 4
556 103 -4
122 104 -4
230 104 4
600 104 -4
457 105 4
458 105 -4
459 105 -4
430 106 4
431 106 -4
223 107 -4
309 107 4
526 107 -4
252 108 -4
332 108 -4
571 108 4
252 109 -4
285 109 4
296 109 -4
211 110 4
314 110 -4
439 110 -4
504 110 4
186 111 4
584 111 -4
322 112 4
365 112 4
421 112 -4
136 113 4
351 113 -4
398 113 4
599 113 -4
222 114 -4
251 114 4
429 114 -4
146 115 4
405 115 -4
227 116 -4
492 116 -4
254 117 -4
355 117 -4
531 117 4
207 118 4
297 118 -4
410 118 -4
472 118 4
195 119 4
321 120 4
341 120 4
449 120 -4
482 121 4
512 121 4
513 121 -4
549 121 -4
305 122 -4
397 122 4
328 123 -4
397 123 4
558 123 -4
237 124 -4
558 124 4
560 124 -4
402 125 -4
404 125 -4
157 126 4
375 126 -4
460 126 -4
233 127 -4
460 127 4
461 127 -4
611 127 4
256 128 4
284 128 -4
376 128 4
613 128 -4
256 129 -4
376 129 -4
497 129 4
202 130 4
286 130 -4
379 130 -4
441 130 4
419 131 4
343 132 -4
478 132 4
588 132 4
165 133 4
480 133 4
550 133 -4
592 133 -4
326 134 -4
426 134 4
136 135 -4
426 135 4
137 136 4
601 136 -4
242 137 -4
521 137 -4
257 138 4
274 138 -4
407 138 4
568 138 -4
257 139 -4
407 139 -4
465 139 4
149 140 -4
358 140 -4
412 140 4
579 140 4
161 141 4
263 141 -4
318 141 4
337 141 -4
279 142 -4
388 142 4
234 143 4
450 143 -4
451 143 -4
593 143 4
348 144 -4
454 144 4
487 144 -4
307 145 -4
454 145 4
488 145 -4
210 146 -4
459 146 4
603 146 -4
405 147 -4
561 147 4
608 147 4
260 148 4
268 148 -4
434 148 4
529 148 -4
150 149 4
265 149 -4
622 149 4
297 150 -4
377 150 4
436 150 -4
272 151 -4
363 151 4
244 152 4
365 152 4
509 152 -4
510 152 -4
229 153 4
392 153 4
422 153 -4
423 153 -4
229 154 4
425 154 -4
593 154 4
595 154 -4
220 155 -4
517 155 4
595 155 4
596 155 -4
329 156 -4
455 156 -4
486 156 4
330 157 -4
491 157 4
560 157 -4
375 158 -4
564 158 4
604 158 4
167 159 4
262 159 4
264 159 -4
495 159 -4
286 160 4
314 160 -4
315 160 -4
270 161 -4
176 162 -4
240 162 4
390 162 4
477 162 -4
198 163 -4
225 163 4
368 163 4
590 163 -4
368 164 4
369 164 -4
371 164 -4
551 164 4
234 165 4
453 165 -4
551 165 -4
226 166 -4
551 166 4
552 166 -4
554 166 4
233 167 -4
463 167 4
464 167 -4
219 168 -4
545 168 -4
420 169 4
448 169 -4
449 169 -4
344 170 4
345 170 -4
347 170 -4
514 170 4
172 171 4
555 171 4
599 171 -4
230 172 -4
514 172 4
515 172 -4
174 173 -4
175 173 4
276 173 -4
316 173 4
214 174 4
384 174 -4
287 175 -4
289 175 4
300 175 -4
177 176 4
179 176 4
585 176 -4
224 177 -4
510 177 -4
179 178 4
343 178 -4
451 178 -4
421 179 -4
324 180 4
343 180 4
345 180 -4
511 180 -4
324 181 4
325 181 -4
346 181 -4
483 181 4
235 182 -4
273 182 4
483 182 4
484 182 -4
310 183 -4
432 183 4
564 183 -4
207 184 4
287 184 4
336 184 -4
624 184 -4
218 185 4
287 185 -4
414 185 -4
228 186 -4
477 186 -4
509 186 4
188 187 4
189 187 -4
391 188 -4
509 188 4
190 189 4
367 189 -4
420 189 4
303 190 4
325 190 -4
478 190 -4
303 191 4
304 191 -4
370 191 -4
452 191 4
232 192 -4
351 192 4
598 192 4
599 192 -4
331 193 -4
461 193 4
526 193 -4
202 194 4
298 194 4
317 194 -4
579 194 -4
447 195 -4
448 195 -4
544 195 4
197 196 4
198 196 -4
366 197 -4
544 197 4
199 198 4
390 198 4
292 199 4
304 199 -4
450 199 -4
292 200 4
293 200 -4
394 200 -4
424 200 4
237 201 -4
328 201 4
555 201 4
556 201 -4
535 202 -4
537 202 -4
204 203 4
422 203 -4
548 203 -4
342 204 -4
586 204 4
242 205 -4
518 205 4
519 205 -4
614 206 4
615 206 -4
617 206 4
618 206 -4
503 207 -4
506 207 -4
321 208 4
322 208 -4
323 208 -4
589 208 4
210 209 4
307 209 -4
374 209 -4
428 210 -4
522 210 4
316 211 4
471 211 -4
474 211 -4
327 212 4
346 212 4
347 212 -4
349 212 -4
332 213 4
609 213 4
610 213 -4
613 213 -4
440 214 -4
442 214 -4
340 215 4
585 215 -4
222 216 4
459 216 -4
527 216 -4
565 216 4
355 217 4
565 217 4
566 217 -4
568 217 -4
411 218 -4
413 218 -4
363 219 4
397 220 4
597 220 4
599 220 -4
373 221 4
397 221 4
398 221 -4
400 221 -4
430 222 4
432 222 -4
376 223 4
527 223 4
529 223 -4
388 224 4
393 225 4
592 225 -4
594 225 -4
398 226 4
553 226 4
556 226 -4
407 227 4
493 227 4
495 227 -4
419 228 4
549 229 -4
550 229 -4
516 230 4
519 230 -4
232 231 4
427 231 4
429 231 -4
521 231 -4
600 232 4
601 232 -4
434 233 4
462 233 4
512 234 -4
513 234 -4
485 235 4
487 235 -4
237 236 4
455 236 4
458 236 -4
560 236 -4
557 237 4
239 238 4
476 238 -4
246 239 -4
628 239 4
629 239 -4
588 240 -4
591 240 -4
242 241 4
488 241 4
490 241 -4
603 241 -4
520 242 4
508 243 -4
630 243 4
546 244 -4
548 244 -4
535 245 4
619 245 4
620 245 -4
623 245 -4
630 246 4
505 247 4
539 247 -4
307 248 -4
602 248 -4
329 249 -4
457 249 -4
559 249 -4
352 250 -4
427 250 4
605 251 -4
607 251 -4
312 252 -4
614 252 4
373 253 -4
455 253 4
283 254 4
312 254 -4
333 254 -4
400 255 -4
457 255 -4
488 255 4
333 256 -4
356 256 -4
356 257 -4
377 257 -4
266 258 -4
542 258 -4
272 259 -4
377 260 -4
408 260 -4
435 260 -4
353 261 -4
431 261 -4
522 261 4
408 262 -4
436 262 -4
464 262 -4
277 263 -4
436 264 -4
466 264 -4
496 264 -4
314 265 -4
356 265 4
466 265 -4
267 266 -4
299 266 4
360 266 -4
289 267 -4
466 268 -4
498 268 -4
530 268 -4
286 269 -4
333 269 4
335 269 -4
498 269 -4
271 270 -4
288 270 4
385 270 -4
300 271 -4
509 272 4
598 273 4
498 274 -4
532 274 -4
570 274 -4
297 275 -4
312 275 4
358 275 -4
532 275 -4
277 276 4
298 276 -4
319 276 -4
278 277 -4
416 277 -4
319 278 -4
544 279 4
292 280 -4
303 280 4
591 280 4
282 281 -4
308 281 -4
404 281 -4
309 282 -4
354 282 -4
492 282 4
295 283 -4
355 283 4
532 284 -4
572 284 -4
615 284 -4
314 285 -4
379 285 -4
572 285 -4
574 286 -4
288 287 -4
317 288 -4
338 288 -4
290 289 -4
444 289 -4
338 290 -4
293 291 -4
324 291 4
548 291 4
479 293 -4
396 294 -4
453 294 -4
483 294 4
572 295 -4
617 295 -4
335 296 -4
410 296 -4
617 296 -4
380 297 -4
299 298 -4
383 298 -4
336 299 -4
361 299 -4
301 300 -4
628 300 -4
361 301 -4
304 302 -4
344 302 4
306 305 -4
484 305 -4
514 305 4
486 306 -4
597 306 4
520 307 4
310 308 -4
353 308 -4
567 308 4
311 309 -4
612 309 -4
311 310 -4
569 311 -4
313 312 -4
358 313 -4
439 313 -4
618 313 4
316 315 4
359 316 -4
318 317 -4
413 317 -4
359 318 -4
386 318 -4
320 319 -4
582 319 -4
386 320 -4
388 321 4
363 322 4
584 322 4
478 323 -4
327 326 -4
515 326 -4
551 326 4
454 327 -4
401 328 4
401 329 -4
557 329 4
401 330 -4
403 330 -4
332 331 4
612 331 -4
614 332 4
334 333 -4
379 334 -4
469 334 -4
573 334 4
622 335 -4
337 336 -4
442 336 -4
384 337 -4
417 337 -4
339 338 -4
540 338 -4
417 339 -4
447 340 -4
450 341 4
511 341 -4
546 341 4
511 342 -4
479 343 -4
367 344 4
349 348 -4
552 348 -4
595 348 4
426 349 -4
352 350 -4
427 350 -4
518 350 4
428 351 4
428 352 -4
600 352 4
524 353 -4
565 353 4
355 354 4
357 356 -4
410 357 -4
501 357 -4
533 357 4
360 359 -4
474 359 -4
414 360 -4
445 360 -4
362 361 -4
583 361 -4
445 362 -4
366 364 -4
420 364 4
422 365 4
547 365 -4
547 366 -4
369 367 -4
547 367 -4
597 370 4
597 371 -4
373 372 -4
555 372 4
456 373 -4
430 374 -4
456 374 -4
561 374 4
527 375 4
378 377 -4
439 378 -4
499 378 4
534 378 -4
381 379 -4
382 380 -4
577 380 -4
382 381 -4
534 381 -4
383 382 -4
443 383 -4
385 384 -4
506 384 -4
443 385 -4
476 385 -4
387 386 -4
629 386 -4
476 387 -4
390 389 4
391 389 -4
590 390 -4
590 391 -4
393 392 4
395 393 -4
595 393 4
553 394 4
553 395 -4
398 396 4
400 399 -4
598 399 4
489 400 -4
402 401 -4
489 402 -4
604 402 4
404 403 -4
429 403 4
524 403 -4
406 404 -4
493 405 4
491 406 -4
493 406 -4
609 406 4
409 408 -4
574 408 -4
467 409 4
469 409 -4
576 409 -4
411 410 -4
536 411 -4
576 411 -4
413 412 4
535 412 -4
475 413 -4
416 414 -4
537 414 -4
445 415 4
508 415 -4
627 415 4
475 416 -4
508 416 -4
418 417 -4
508 418 -4
586 419 4
423 420 -4
423 421 -4
479 422 -4
516 424 4
594 424 -4
516 425 -4
600 426 4
429 428 -4
462 431 4
462 432 -4
525 432 -4
434 433 4
609 433 4
435 434 -4
465 435 -4
438 436 -4
438 437 -4
465 437 -4
574 437 -4
501 438 -4
621 438 -4
440 439 -4
504 440 -4
621 440 -4
442 441 4
503 441 -4
507 442 -4
444 443 -4
580 443 -4
507 444 -4
541 444 -4
446 445 -4
541 446 -4
451 449 -4
589 450 -4
485 452 4
550 452 -4
485 453 -4
557 454 4
458 456 -4
604 458 -4
461 459 -4
563 461 -4
567 462 4
565 463 4
497 464 -4
467 465 -4
468 466 -4
468 467 -4
497 467 -4
470 468 -4
534 468 -4
471 469 -4
471 470 -4
575 470 -4
472 471 -4
474 472 4
505 472 4
504 473 4
538 473 4
538 474 -4
625 475 -4
628 475 -4
539 476 4
480 478 -4
481 479 -4
481 480 -4
482 481 -4
484 482 -4
514 482 -4
513 483 -4
517 486 4
520 486 4
520 487 -4
490 489 -4
561 490 -4
492 491 -4
606 492 -4
528 493 4
495 494 4
527 494 4
496 495 -4
531 496 -4
499 497 -4
500 498 -4
500 499 -4
531 499 -4
502 500 -4
576 500 -4
503 501 -4
503 502 -4
620 502 -4
506 504 4
581 505 4
581 506 -4
582 507 -4
512 511 -4
515 513 -4
519 517 -4
554 518 4
522 521 -4
523 521 -4
525 522 4
525 523 -4
526 524 4
526 525 -4
529 528 4
530 529 -4
571 530 -4
533 531 -4
619 532 -4
571 533 -4
619 533 -4
535 534 -4
537 536 4
626 537 -4
540 538 -4
628 538 -4
542 539 -4
542 540 -4
626 540 -4
543 541 -4
543 542 -4
546 544 -4
546 545 -4
549 547 -4
549 548 -4
552 550 -4
556 554 -4
562 559 4
562 560 -4
563 561 4
563 562 -4
564 563 -4
566 564 -4
568 567 4
570 568 -4
616 569 4
616 570 -4
573 571 -4
575 572 -4
575 573 -4
616 573 -4
577 574 -4
577 575 -4
578 576 -4
578 577 -4
579 578 -4
580 579 -4
582 581 -4
583 581 -4
630 582 4
630 583 -4
587 584 -4
587 585 -4
588 586 -4
588 587 -4
591 589 -4
592 590 -4
592 591 -4
594 593 -4
596 594 -4
603 601 -4
605 602 4
605 603 -4
606 604 4
606 605 -4
608 606 -4
610 607 4
609 608 -4
610 608 -4
611 610 -4
613 611 4
614 612 4
615 612 -4
615 613 -4
618 616 -4
620 617 -4
620 618 -4
621 619 -4
623 621 -4
624 622 4
624 623 -4
625 624 -4
627 625 -4
629 626 -4
629 627 -4
384
247 2
248 2
249 2
250 2
251 2
252 2
253 2
254 2
255 2
256 2
257 2
258 2
259 2
260 2
261 2
262 2
263 2
264 4
265 2
266 2
267 2
268 4
269 2
270 2
271 2
272 2
273 -2
274 4
275 2
276 2
277 2
278 2
279 2
280 -2
281 2
282 2
283 -2
284 4
285 2
286 2
287 2
288 2
289 2
290 2
291 -2
292 -2
293 4
294 2
295 2
296 4
297 4
298 2
299 2
300 4
301 2
302 -2
303 -4
304 4
305 2
306 2
307 2
308 2
309 2
310 4
311 4
312 2
313 2
314 4
315 2
316 -2
317 4
318 2
319 4
320 2
321 -4
322 -2
323 2
324 -4
325 4
326 2
327 2
328 -2
329 2
330 4
331 2
332 -2
333 2
334 2
335 4
336 4
337 4
338 4
339 2
340 2
341 -2
342 2
343 2
344 -4
345 4
346 -2
347 2
348 2
349 4
350 2
351 -2
352 2
353 2
354 2
355 -2
356 2
357 2
358 4
359 4
360 4
361 4
362 2
363 -2
364 -2
365 -2
366 2
367 2
368 -4
369 4
370 -2
371 2
372 2
373 2
374 2
375 2
376 -2
377 2
378 2
379 4
380 4
381 4
382 4
383 2
384 4
385 4
386 4
387 2
388 -2
389 -2
390 -2
391 4
392 -4
393 -2
394 -2
395 2
396 2
397 -4
398 -2
399 2
400 4
401 2
402 2
403 2
404 4
405 2
406 2
407 -2
408 4
409 2
410 4
411 4
412 -2
413 2
414 4
415 -2
416 4
417 2
418 2
419 -2
420 -2
421 4
422 2
423 2
424 -2
425 4
426 -2
427 -2
428 2
429 2
430 -2
431 2
432 2
433 -2
434 -2
435 4
436 4
437 4
438 4
439 4
440 4
441 -2
442 2
443 4
444 4
445 2
446 2
447 2
448 2
449 4
450 2
451 2
452 -2
453 4
454 -2
455 -2
456 2
457 2
458 4
459 2
460 2
461 2
462 -2
463 -2
464 4
465 2
466 4
467 2
468 4
469 4
470 2
471 4
472 -2
473 -2
474 2
475 4
476 2
477 2
478 2
479 4
480 2
481 4
482 2
483 -2
484 4
485 -2
486 -2
487 2
488 -2
489 2
490 4
491 2
492 2
493 -2
494 -4
495 2
496 4
497 2
498 4
499 2
500 4
501 4
502 4
503 4
504 -2
505 -2
506 2
507 2
508 4
509 -2
510 4
511 4
512 2
513 4
514 -2
515 4
516 -2
517 -2
518 -2
519 4
520 -2
521 4
522 -2
523 2
524 2
525 2
526 2
527 -2
528 -4
529 2
530 4
531 2
532 4
533 2
534 4
535 2
536 -2
537 2
538 2
539 2
540 4
541 4
542 4
543 2
544 -2
545 4
546 2
547 4
548 2
549 4
550 4
551 -2
552 4
553 -2
554 -2
555 -2
556 4
557 -2
558 2
559 -2
560 4
561 -2
562 2
563 2
564 2
565 -4
566 2
567 -4
568 2
569 -2
570 4
571 2
572 4
573 2
574 4
575 4
576 4
577 4
578 4
579 2
580 2
581 2
582 2
583 4
584 2
585 2
586 -2
587 4
588 2
589 2
590 4
591 2
592 4
593 -2
594 4
595 -2
596 4
597 -2
598 -2
599 4
600 -2
601 2
602 -2
603 4
604 -2
605 2
606 2
607 -2
608 2
609 -2
610 2
611 -2
612 2
613 2
614 -4
615 4
616 2
617 2
618 2
619 2
620 4
621 4
622 -2
623 4
624 2
625 4
626 2
627 2
628 2
629 4
630 -2
